NAME /Users/henri/Research/solvers/instances/idol-instances/robust/collection/cbp_Subramanyam_et_al_2020/CapBud_N20_18/models/uncertain_technology_matrix/
ROWS
 N  OBJ
 L  capacity
 L  c_3315
 L  c_3316
 L  c_3317
 L  c_3318
 L  c_3319
 L  c_3320
 L  c_3321
 L  c_3322
 L  c_3323
 L  c_3324
 L  c_3325
 L  c_3326
 L  c_3327
 L  c_3328
 L  c_3329
 L  c_3330
 L  c_3331
 L  c_3332
 L  c_3333
 L  c_3334
COLUMNS
    MARKER    'MARKER'                 'INTORG'
    x_0        OBJ        9.62524
    x_0        c_3315     1
    x_0        capacity   1.92505
    x_1        OBJ        8.0951
    x_1        c_3316     1
    x_1        capacity   1.61902
    x_2        OBJ        1.60206
    x_2        c_3317     1
    x_2        capacity   0.320413
    x_3        OBJ        0.846007
    x_3        c_3318     1
    x_3        capacity   0.169201
    x_4        OBJ        6.80762
    x_4        c_3319     1
    x_4        capacity   1.36152
    x_5        OBJ        6.93447
    x_5        c_3320     1
    x_5        capacity   1.38689
    x_6        OBJ        8.91403
    x_6        c_3321     1
    x_6        capacity   1.78281
    x_7        OBJ        8.56981
    x_7        c_3322     1
    x_7        capacity   1.71396
    x_8        OBJ        4.14402
    x_8        c_3323     1
    x_8        capacity   0.828803
    x_9        OBJ        0.438423
    x_9        c_3324     1
    x_9        capacity   0.0876845
    x_10       OBJ        9.61379
    x_10       c_3325     1
    x_10       capacity   1.92276
    x_11       OBJ        1.21049
    x_11       c_3326     1
    x_11       capacity   0.242097
    x_12       OBJ        8.48389
    x_12       c_3327     1
    x_12       capacity   1.69678
    x_13       OBJ        5.40495
    x_13       c_3328     1
    x_13       capacity   1.08099
    x_14       OBJ        1.49535
    x_14       c_3329     1
    x_14       capacity   0.299071
    x_15       OBJ        7.78452
    x_15       c_3330     1
    x_15       capacity   1.5569
    x_16       OBJ        6.58464
    x_16       c_3331     1
    x_16       capacity   1.31693
    x_17       OBJ        8.88607
    x_17       c_3332     1
    x_17       capacity   1.77721
    x_18       OBJ        7.19455
    x_18       c_3333     1
    x_18       capacity   1.43891
    x_19       OBJ        9.90189
    x_19       c_3334     1
    x_19       capacity   1.98038
    y_0        OBJ        7.70019
    y_0        c_3315     1
    y_0        capacity   1.92505
    y_1        OBJ        6.47608
    y_1        c_3316     1
    y_1        capacity   1.61902
    y_2        OBJ        1.28165
    y_2        c_3317     1
    y_2        capacity   0.320413
    y_3        OBJ        0.676805
    y_3        c_3318     1
    y_3        capacity   0.169201
    y_4        OBJ        5.4461
    y_4        c_3319     1
    y_4        capacity   1.36152
    y_5        OBJ        5.54758
    y_5        c_3320     1
    y_5        capacity   1.38689
    y_6        OBJ        7.13122
    y_6        c_3321     1
    y_6        capacity   1.78281
    y_7        OBJ        6.85585
    y_7        c_3322     1
    y_7        capacity   1.71396
    y_8        OBJ        3.31521
    y_8        c_3323     1
    y_8        capacity   0.828803
    y_9        OBJ        0.350738
    y_9        c_3324     1
    y_9        capacity   0.0876845
    y_10       OBJ        7.69103
    y_10       c_3325     1
    y_10       capacity   1.92276
    y_11       OBJ        0.968389
    y_11       c_3326     1
    y_11       capacity   0.242097
    y_12       OBJ        6.78711
    y_12       c_3327     1
    y_12       capacity   1.69678
    y_13       OBJ        4.32396
    y_13       c_3328     1
    y_13       capacity   1.08099
    y_14       OBJ        1.19628
    y_14       c_3329     1
    y_14       capacity   0.299071
    y_15       OBJ        6.22762
    y_15       c_3330     1
    y_15       capacity   1.5569
    y_16       OBJ        5.26771
    y_16       c_3331     1
    y_16       capacity   1.31693
    y_17       OBJ        7.10885
    y_17       c_3332     1
    y_17       capacity   1.77721
    y_18       OBJ        5.75564
    y_18       c_3333     1
    y_18       capacity   1.43891
    y_19       OBJ        7.92151
    y_19       c_3334     1
    y_19       capacity   1.98038
    MARKER    'MARKER'                 'INTEND'
RHS
    RHS       capacity   61.2685
    RHS       c_3315     1
    RHS       c_3316     1
    RHS       c_3317     1
    RHS       c_3318     1
    RHS       c_3319     1
    RHS       c_3320     1
    RHS       c_3321     1
    RHS       c_3322     1
    RHS       c_3323     1
    RHS       c_3324     1
    RHS       c_3325     1
    RHS       c_3326     1
    RHS       c_3327     1
    RHS       c_3328     1
    RHS       c_3329     1
    RHS       c_3330     1
    RHS       c_3331     1
    RHS       c_3332     1
    RHS       c_3333     1
    RHS       c_3334     1
BOUNDS
 LI BND       x_0        0
 UI BND       x_0        1
 LI BND       x_1        0
 UI BND       x_1        1
 LI BND       x_2        0
 UI BND       x_2        1
 LI BND       x_3        0
 UI BND       x_3        1
 LI BND       x_4        0
 UI BND       x_4        1
 LI BND       x_5        0
 UI BND       x_5        1
 LI BND       x_6        0
 UI BND       x_6        1
 LI BND       x_7        0
 UI BND       x_7        1
 LI BND       x_8        0
 UI BND       x_8        1
 LI BND       x_9        0
 UI BND       x_9        1
 LI BND       x_10       0
 UI BND       x_10       1
 LI BND       x_11       0
 UI BND       x_11       1
 LI BND       x_12       0
 UI BND       x_12       1
 LI BND       x_13       0
 UI BND       x_13       1
 LI BND       x_14       0
 UI BND       x_14       1
 LI BND       x_15       0
 UI BND       x_15       1
 LI BND       x_16       0
 UI BND       x_16       1
 LI BND       x_17       0
 UI BND       x_17       1
 LI BND       x_18       0
 UI BND       x_18       1
 LI BND       x_19       0
 UI BND       x_19       1
 LI BND       y_0        0
 UI BND       y_0        1
 LI BND       y_1        0
 UI BND       y_1        1
 LI BND       y_2        0
 UI BND       y_2        1
 LI BND       y_3        0
 UI BND       y_3        1
 LI BND       y_4        0
 UI BND       y_4        1
 LI BND       y_5        0
 UI BND       y_5        1
 LI BND       y_6        0
 UI BND       y_6        1
 LI BND       y_7        0
 UI BND       y_7        1
 LI BND       y_8        0
 UI BND       y_8        1
 LI BND       y_9        0
 UI BND       y_9        1
 LI BND       y_10       0
 UI BND       y_10       1
 LI BND       y_11       0
 UI BND       y_11       1
 LI BND       y_12       0
 UI BND       y_12       1
 LI BND       y_13       0
 UI BND       y_13       1
 LI BND       y_14       0
 UI BND       y_14       1
 LI BND       y_15       0
 UI BND       y_15       1
 LI BND       y_16       0
 UI BND       y_16       1
 LI BND       y_17       0
 UI BND       y_17       1
 LI BND       y_18       0
 UI BND       y_18       1
 LI BND       y_19       0
 UI BND       y_19       1
ENDATA
